(set-logic QF_SLIA)
(declare-fun var0 () String)
(assert (not (str.in_re var0 (re.++ ((_ re.loop 18 257) (re.++ (re.union (str.to_re "pf6") (re.union (str.to_re "'/h") (re.union (str.to_re "h") (str.to_re "W.4")))) (re.++ (re.union (str.to_re "K") (re.union (str.to_re ";") (re.union (str.to_re "x") (str.to_re "bC")))) (re.++ (re.union (str.to_re "\u0022)") (re.union (str.to_re "lL") (re.union (str.to_re "RFR") (str.to_re "Lo")))) (re.union (str.to_re "u") (re.union (str.to_re "U^9") (re.union (str.to_re "v") (str.to_re ".BP")))))))) (re.++ ((_ re.loop 13 367) (re.++ (re.union (str.to_re "x_/") (re.union (str.to_re "\\I") (re.union (str.to_re "uGC") (str.to_re "W")))) (re.++ (re.union (str.to_re "8") (re.union (str.to_re "-E!") (re.union (str.to_re "p\u0022]") (str.to_re "uEC")))) (re.++ (re.union (str.to_re "Fm") (re.union (str.to_re "J") (re.union (str.to_re "TyT") (str.to_re "1")))) (re.union (str.to_re ":") (re.union (str.to_re "(=") (re.union (str.to_re "$") (str.to_re "~A")))))))) (re.++ ((_ re.loop 18 315) (re.++ (re.union (str.to_re "gqA") (re.union (str.to_re "7") (re.union (str.to_re "z") (str.to_re "[lx")))) (re.++ (re.union (str.to_re "sAu") (re.union (str.to_re "<p9") (re.union (str.to_re "X") (str.to_re "qTP")))) (re.++ (re.union (str.to_re "'F4") (re.union (str.to_re ",s") (re.union (str.to_re "e") (str.to_re "Lp")))) (re.union (str.to_re "d\u0022|") (re.union (str.to_re "<,h") (re.union (str.to_re "C=g") (str.to_re "W")))))))) ((_ re.loop 17 607) (re.++ (re.union (str.to_re "L6") (re.union (str.to_re "^?F") (re.union (str.to_re "V") (str.to_re "E")))) (re.++ (re.union (str.to_re "=e4") (re.union (str.to_re "S") (re.union (str.to_re "+") (str.to_re "8\u0022M")))) (re.++ (re.union (str.to_re "E") (re.union (str.to_re "8a") (re.union (str.to_re "&") (str.to_re "z")))) (re.union (str.to_re "Br") (re.union (str.to_re "B") (re.union (str.to_re ">!#") (str.to_re ")"))))))))))))))
(assert (not (str.in_re var0 (re.++ ((_ re.loop 0 497) (re.++ (re.union (str.to_re "+") (re.union (str.to_re "V`n") (re.union (str.to_re "\\") (str.to_re ">(")))) (re.++ (re.union (str.to_re "g") (re.union (str.to_re "+TW") (re.union (str.to_re "sO") (str.to_re "{eD")))) (re.++ (re.union (str.to_re "OL") (re.union (str.to_re "R") (re.union (str.to_re "E") (str.to_re "O")))) (re.union (str.to_re ">6") (re.union (str.to_re "VI@") (re.union (str.to_re "6~H") (str.to_re "Y(;")))))))) (re.++ ((_ re.loop 18 248) (re.++ (re.union (str.to_re "KM?") (re.union (str.to_re "Bl;") (re.union (str.to_re "9TW") (str.to_re "Ajf")))) (re.++ (re.union (str.to_re "fB") (re.union (str.to_re "*%") (re.union (str.to_re "l~") (str.to_re "]V")))) (re.++ (re.union (str.to_re "Ry") (re.union (str.to_re "y") (re.union (str.to_re "?^D") (str.to_re "P")))) (re.union (str.to_re "+t*") (re.union (str.to_re "n!") (re.union (str.to_re "@_") (str.to_re "zz0")))))))) (re.++ ((_ re.loop 17 416) (re.++ (re.union (str.to_re "m") (re.union (str.to_re "Buu") (re.union (str.to_re "IO") (str.to_re "%")))) (re.++ (re.union (str.to_re "D&") (re.union (str.to_re "@D") (re.union (str.to_re ">") (str.to_re "AIp")))) (re.++ (re.union (str.to_re "V$") (re.union (str.to_re "P;Y") (re.union (str.to_re "N'8") (str.to_re "OJd")))) (re.union (str.to_re "-O") (re.union (str.to_re "B") (re.union (str.to_re "2l") (str.to_re "2[(")))))))) ((_ re.loop 11 905) (re.++ (re.union (str.to_re "4") (re.union (str.to_re ".") (re.union (str.to_re "`?") (str.to_re "n")))) (re.++ (re.union (str.to_re "k|S") (re.union (str.to_re "]\\") (re.union (str.to_re "s^!") (str.to_re "u")))) (re.++ (re.union (str.to_re "3dE") (re.union (str.to_re "z<") (re.union (str.to_re "[=5") (str.to_re "i!")))) (re.union (str.to_re "I|=") (re.union (str.to_re ",") (re.union (str.to_re "v") (str.to_re "qk"))))))))))))))
(assert (not (str.in_re var0 (re.++ (re.* re.allchar) (re.++ (re.union (str.to_re "<") (re.union (str.to_re ">") (re.union (str.to_re "'") (re.union (str.to_re "\u0022") (str.to_re "&"))))) (re.* re.allchar))))))
(assert (<= 50 (str.len var0)))
(check-sat)
(get-model)
